************************************************************************
file with basedata            : j9013_.bas
initial value random generator: 10717
************************************************************************
projects                      :  1
jobs (incl. supersource/sink ):  92
horizon                       :  455
RESOURCES
  - renewable                 :  4   R
  - nonrenewable              :  0   N
  - doubly constrained        :  0   D
************************************************************************
PROJECT INFORMATION:
pronr.  #jobs rel.date duedate tardcost  MPM-Time
    1     90      0       82       74       82
************************************************************************
PRECEDENCE RELATIONS:
jobnr.    #modes  #successors   successors
   1        1          3           2   3   4
   2        1          3          14  21  42
   3        1          3           5   8  69
   4        1          3           7   9  54
   5        1          3           6  11  15
   6        1          3          16  19  24
   7        1          2          26  28
   8        1          2          10  86
   9        1          1          57
  10        1          3          12  13  20
  11        1          1          18
  12        1          1          89
  13        1          1          33
  14        1          3          17  22  38
  15        1          2          23  25
  16        1          1          17
  17        1          2          64  82
  18        1          1          67
  19        1          2          27  32
  20        1          2          39  48
  21        1          1          90
  22        1          1          30
  23        1          1          51
  24        1          2          36  37
  25        1          1          43
  26        1          3          29  44  78
  27        1          2          49  73
  28        1          2          31  79
  29        1          3          40  46  61
  30        1          2          45  67
  31        1          1          72
  32        1          3          34  41  87
  33        1          3          47  66  68
  34        1          2          35  58
  35        1          1          59
  36        1          1          64
  37        1          2          56  63
  38        1          1          84
  39        1          1          50
  40        1          1          80
  41        1          2          47  55
  42        1          1          56
  43        1          1          77
  44        1          1          81
  45        1          1          61
  46        1          1          53
  47        1          1          74
  48        1          1          71
  49        1          1          72
  50        1          1          51
  51        1          1          52
  52        1          1          66
  53        1          3          60  62  84
  54        1          1          88
  55        1          1          56
  56        1          1          72
  57        1          1          79
  58        1          1          75
  59        1          1          73
  60        1          1          83
  61        1          3          65  70  75
  62        1          1          64
  63        1          1          79
  64        1          1          71
  65        1          1          85
  66        1          1          78
  67        1          1          75
  68        1          2          71  76
  69        1          1          83
  70        1          2          76  81
  71        1          1          87
  72        1          2          74  83
  73        1          2          77  78
  74        1          1          81
  75        1          1          85
  76        1          1          88
  77        1          2          82  90
  78        1          1          80
  79        1          1          80
  80        1          1          90
  81        1          1          85
  82        1          1          84
  83        1          2          89  91
  84        1          1          88
  85        1          1          89
  86        1          1          87
  87        1          1          91
  88        1          1          91
  89        1          1          92
  90        1          1          92
  91        1          1          92
  92        1          0        
************************************************************************
REQUESTS/DURATIONS:
jobnr. mode duration  R 1  R 2  R 3  R 4
------------------------------------------------------------------------
  1      1     0       0    0    0    0
  2      1     4       5    5    4    5
  3      1     2       8    2    9    3
  4      1     6       6    3    7    2
  5      1     6       6    6    9    1
  6      1     8       3    2   10    4
  7      1     6       8    2    7    3
  8      1     4      10    9    3    1
  9      1     2       9    5    8    5
 10      1     5       8    6    6    9
 11      1     1       9    1    9    6
 12      1     1       9    1    3    3
 13      1     7       9    5    2    5
 14      1     5       4    6    6    3
 15      1     7       9    9    2    5
 16      1     7       3    7    5   10
 17      1     5       4    3    3    6
 18      1     4       7    4    4    9
 19      1    10       7    1    3    1
 20      1     8       9    7    5    9
 21      1    10       8   10    9    9
 22      1     5      10    9    1    1
 23      1     1       1    4    3    4
 24      1     9       3    7    6    7
 25      1     2      10    7    5    1
 26      1     5      10    4    6    2
 27      1     2       2    2    4    6
 28      1     1       5    9    6    7
 29      1    10       6    1    8    4
 30      1     1       4    8    1    7
 31      1    10       7    6    4    6
 32      1     4       4    3    4    1
 33      1     4       7   10   10    3
 34      1     9       9    5   10    8
 35      1     4       9    5    7    6
 36      1     5       5    6    3    5
 37      1     8       1   10    6    8
 38      1     3       6    6    8    7
 39      1     6       3    8    9   10
 40      1     2       9   10    6    5
 41      1     9       5    5    9    2
 42      1     3       3    3    9    9
 43      1     9       7    6    9    8
 44      1     9       3    5    8    1
 45      1     8       9    1    5    1
 46      1     4       2    4    9    7
 47      1     5       9    4    6    4
 48      1     8       7    2    1    3
 49      1     7       7    7    6    5
 50      1     2       8    2    2    8
 51      1     5       9    7    9   10
 52      1     3       8    8    5    4
 53      1     3       3    3    2    3
 54      1     5       8    2    9    3
 55      1     1       7    3    7    8
 56      1     2       4    9    6    5
 57      1     1       7    6    8    7
 58      1     8       3    1    3    9
 59      1     8       9    4    5    6
 60      1    10       3    6    8    4
 61      1     2       6    6   10    9
 62      1     2       2    2    3    5
 63      1     1       3    4    5    7
 64      1     2       8    5    5    5
 65      1    10       6    9    7    9
 66      1     3       9    1    7    5
 67      1     2       7    9    1    5
 68      1     1       6    7    4    2
 69      1     2       8    2    4    7
 70      1     8       2    5    8    5
 71      1     8       4    1    8    9
 72      1     1       1   10    1    4
 73      1     5       1    3    4   10
 74      1     1       3    7    2    1
 75      1     8       9    9    1   10
 76      1     9       5    4    5    5
 77      1     5      10    1    9    7
 78      1     6       7    3    7    3
 79      1    10       1    8    9    1
 80      1     3       5    5    4   10
 81      1     3       3    2    1    3
 82      1     1       6   10   10    5
 83      1     4       4    4    4    3
 84      1     5       9    9   10    3
 85      1     3       5    7    6    5
 86      1     4       4    6    7    9
 87      1    10       8    8    7    7
 88      1     6       8    5    7    5
 89      1     4       6    7    3    6
 90      1     8       8    3    2    2
 91      1     9       5   10    8    2
 92      1     0       0    0    0    0
************************************************************************
RESOURCEAVAILABILITIES:
  R 1  R 2  R 3  R 4
   24   20   23   20
************************************************************************
